
===== New CPLEX run =====
Instance: /home/yorig/tuner/mpils-tests/instances/miplib/medium-1/mushroom-best.mps
Config: /scratch/yorig/mpils-results-grid-seconds-5/medium-1/24proc/seed-2/7_mushroom-best_seed-2_20260503_110448/expansion/config_param_CPXPARAM_MIP_Strategy_VariableSelect_4_iter_1.prm
========================

Selected objective sense:  MINIMIZE
Selected objective  name:  obj
Selected RHS        name:  rhs
Selected bound      name:  bnd
Version identifier: 22.1.2.0 | 2024-11-26 | 0edbb82fd
CPXPARAM_Threads                                 8
CPXPARAM_Parallel                                1
CPXPARAM_MIP_Cuts_Cliques                        1
CPXPARAM_MIP_Strategy_VariableSelect             4
CPXPARAM_MIP_Cuts_FlowCovers                     1
CPXPARAM_MIP_Cuts_GUBCovers                      -1
CPXPARAM_MIP_Limits_GomoryCand                   10
CPXPARAM_MIP_Cuts_Gomory                         -1
CPXPARAM_MIP_Cuts_PathCut                        1
CPXPARAM_MIP_Cuts_MIRCut                         -1
CPXPARAM_MIP_Cuts_Disjunctive                    2
CPXPARAM_Emphasis_MIP                            3
CPXPARAM_TimeLimit                               5
Found incumbent of value 8124.895732 after 0.00 sec. (1.54 ticks)
Tried aggregator 2 times.
MIP Presolve eliminated 88 rows and 0 columns.
MIP Presolve modified 8124 coefficients.
Aggregator did 4 substitutions.
Reduced MIP has 8488 rows, 8464 columns, and 180316 nonzeros.
Reduced MIP has 8237 binaries, 114 generals, 0 SOSs, and 0 indicators.
Presolve time = 0.05 sec. (69.18 ticks)
Probing time = 0.00 sec. (2.69 ticks)
Tried aggregator 2 times.
Detecting symmetries...
MIP Presolve modified 6649 coefficients.
Aggregator did 44 substitutions.
Reduced MIP has 8444 rows, 8420 columns, and 180228 nonzeros.
Reduced MIP has 8237 binaries, 183 generals, 0 SOSs, and 0 indicators.
Presolve time = 0.08 sec. (102.88 ticks)
Probing time = 0.00 sec. (2.82 ticks)
MIP emphasis: best bound.
MIP search method: dynamic search.
Parallel mode: deterministic, using up to 8 threads.
Root relaxation solution time = 0.14 sec. (206.49 ticks)

        Nodes                                         Cuts/
   Node  Left     Objective  IInf  Best Integer    Best Bound    ItCnt     Gap

*     0+    0                         8124.8957        0.0000           100.00%
*     0+    0                         3916.5463        0.0000           100.00%
*     0+    0                         3916.5456        0.0000           100.00%
*     0+    0                         3916.5450        0.0000           100.00%
*     0+    0                         3916.0000        0.0000           100.00%
      0     0        0.0000    26     3916.0000        0.0000      406  100.00%
*     0+    0                           38.1106        0.0000           100.00%
*     0+    0                            0.0711        0.0000            99.98%
*     0+    0                            0.0632        0.0000            99.98%
      0     0  -1.00000e+75     0        0.0632        0.0000      406   99.98%

Repeating presolve.
Tried aggregator 1 time.
MIP Presolve eliminated 98 rows and 8128 columns.
MIP Presolve modified 8124 coefficients.
Reduced MIP has 8346 rows, 292 columns, and 170180 nonzeros.
Reduced MIP has 111 binaries, 181 generals, 0 SOSs, and 0 indicators.
Presolve time = 0.04 sec. (61.97 ticks)
Probing time = 0.00 sec. (2.09 ticks)
Tried aggregator 1 time.
Detecting symmetries...
Reduced MIP has 8346 rows, 292 columns, and 170180 nonzeros.
Reduced MIP has 111 binaries, 181 generals, 0 SOSs, and 0 indicators.
Presolve time = 0.03 sec. (46.86 ticks)
Represolve time = 0.09 sec. (129.23 ticks)
Probing time = 0.00 sec. (2.09 ticks)
MIP emphasis: best bound.
MIP search method: dynamic search.
Parallel mode: deterministic, using up to 8 threads.
Root relaxation solution time = 0.13 sec. (160.03 ticks)

        Nodes                                         Cuts/
   Node  Left     Objective  IInf  Best Integer    Best Bound    ItCnt     Gap

*     0+    0                            0.0632        0.0000            99.98%
      0     0        0.0127    13        0.0632        0.0127      678   79.94%
      0     2        0.0127    13        0.0632        0.0190      678   69.94%
Elapsed time = 1.27 sec. (2111.78 ticks, tree = 0.02 MB, solutions = 7)
*     5+    2                            0.0553        0.0190            65.65%
     20    14        0.0474     4        0.0553        0.0190     1162   65.65%
     80    73        0.0269    12        0.0553        0.0190     4877   65.65%
    144   114        0.0317    12        0.0553        0.0253     7622   54.20%
    216   188        0.0356    10        0.0553        0.0281    12014   49.19%
    269   261        0.0298    45        0.0553        0.0285    16753   48.46%
    337   314        0.0373    50        0.0553        0.0300    19805   45.81%
    411   394        0.0347    52        0.0553        0.0317    24227   42.73%
    488   416        0.0411    42        0.0553        0.0328    25445   40.74%
    561   515        0.0417    45        0.0553        0.0333    31314   39.91%
    896   753        0.0427    12        0.0553        0.0349    42344   37.01%
Elapsed time = 3.84 sec. (5243.53 ticks, tree = 1.19 MB, solutions = 15)
   1254  1112        0.0396     9        0.0553        0.0364    57933   34.21%

Clique cuts applied:  0
Flow cuts applied:  0
Flow path cuts applied:  0
Disjunctive cuts applied:  0
Cone linearizations applied:  0

Root node processing (before b&c):
  Real time             =    1.26 sec. (2104.36 ticks)
Parallel b&c, 8 threads:
  Real time             =    3.74 sec. (4599.59 ticks)
  Sync time (average)   =    0.37 sec.
  Wait time (average)   =    0.00 sec.
                          ------------
Total (root+branch&cut) =    5.01 sec. (6703.96 ticks)
Gap: 32.55%
Upper bound: 0.0553338
Lower bound: 0.0373217
End of CPLEX run. Time: 5.00921 seconds

===== New CPLEX run =====
Instance: /home/yorig/tuner/mpils-tests/instances/miplib/medium-1/mushroom-best.mps
Config: /scratch/yorig/mpils-results-grid-seconds-5/medium-1/24proc/seed-2/7_mushroom-best_seed-2_20260503_110448/expansion/config_param_CPXPARAM_MIP_Strategy_NodeSelect_0_iter_1.prm
========================

Selected objective sense:  MINIMIZE
Selected objective  name:  obj
Selected RHS        name:  rhs
Selected bound      name:  bnd
Version identifier: 22.1.2.0 | 2024-11-26 | 0edbb82fd
CPXPARAM_Threads                                 8
CPXPARAM_Parallel                                1
CPXPARAM_MIP_Cuts_Cliques                        1
CPXPARAM_MIP_Strategy_NodeSelect                 0
CPXPARAM_MIP_Cuts_FlowCovers                     1
CPXPARAM_MIP_Cuts_GUBCovers                      -1
CPXPARAM_MIP_Limits_GomoryCand                   10
CPXPARAM_MIP_Cuts_Gomory                         -1
CPXPARAM_MIP_Cuts_PathCut                        1
CPXPARAM_MIP_Cuts_MIRCut                         -1
CPXPARAM_MIP_Cuts_Disjunctive                    2
CPXPARAM_Emphasis_MIP                            3
CPXPARAM_TimeLimit                               5
Found incumbent of value 8124.895732 after 0.00 sec. (1.54 ticks)
Tried aggregator 2 times.
MIP Presolve eliminated 88 rows and 0 columns.
MIP Presolve modified 8124 coefficients.
Aggregator did 4 substitutions.
Reduced MIP has 8488 rows, 8464 columns, and 180316 nonzeros.
Reduced MIP has 8237 binaries, 114 generals, 0 SOSs, and 0 indicators.
Presolve time = 0.05 sec. (69.18 ticks)
Probing time = 0.00 sec. (2.69 ticks)
Tried aggregator 2 times.
Detecting symmetries...
MIP Presolve modified 6649 coefficients.
Aggregator did 44 substitutions.
Reduced MIP has 8444 rows, 8420 columns, and 180228 nonzeros.
Reduced MIP has 8237 binaries, 183 generals, 0 SOSs, and 0 indicators.
Presolve time = 0.08 sec. (102.88 ticks)
Probing time = 0.00 sec. (2.82 ticks)
MIP emphasis: best bound.
MIP search method: dynamic search.
Parallel mode: deterministic, using up to 8 threads.
Root relaxation solution time = 0.14 sec. (206.49 ticks)

        Nodes                                         Cuts/
   Node  Left     Objective  IInf  Best Integer    Best Bound    ItCnt     Gap

*     0+    0                         8124.8957        0.0000           100.00%
*     0+    0                         3916.5463        0.0000           100.00%
*     0+    0                         3916.5456        0.0000           100.00%
*     0+    0                         3916.5450        0.0000           100.00%
*     0+    0                         3916.0000        0.0000           100.00%
      0     0        0.0000    26     3916.0000        0.0000      406  100.00%
*     0+    0                           38.1106        0.0000           100.00%
*     0+    0                            0.0711        0.0000            99.98%
*     0+    0                            0.0632        0.0000            99.98%
      0     0  -1.00000e+75     0        0.0632        0.0000      406   99.98%

Repeating presolve.
Tried aggregator 1 time.
MIP Presolve eliminated 98 rows and 8128 columns.
MIP Presolve modified 8124 coefficients.
Reduced MIP has 8346 rows, 292 columns, and 170180 nonzeros.
Reduced MIP has 111 binaries, 181 generals, 0 SOSs, and 0 indicators.
Presolve time = 0.04 sec. (61.97 ticks)
Probing time = 0.00 sec. (2.09 ticks)
Tried aggregator 1 time.
Detecting symmetries...
Reduced MIP has 8346 rows, 292 columns, and 170180 nonzeros.
Reduced MIP has 111 binaries, 181 generals, 0 SOSs, and 0 indicators.
Presolve time = 0.03 sec. (46.86 ticks)
Represolve time = 0.09 sec. (129.23 ticks)
Probing time = 0.00 sec. (2.09 ticks)
MIP emphasis: best bound.
MIP search method: dynamic search.
Parallel mode: deterministic, using up to 8 threads.
Root relaxation solution time = 0.13 sec. (160.03 ticks)

        Nodes                                         Cuts/
   Node  Left     Objective  IInf  Best Integer    Best Bound    ItCnt     Gap

*     0+    0                            0.0632        0.0000            99.98%
      0     0        0.0127    13        0.0632        0.0127      678   79.94%
      0     2        0.0127    13        0.0632        0.0127      678   79.94%
Elapsed time = 1.26 sec. (2111.78 ticks, tree = 0.02 MB, solutions = 7)
*     4+    2                            0.0553        0.0127            77.08%
     22     6        0.0343    23        0.0553        0.0135      901   75.65%
     98    48        0.0443     8        0.0553        0.0155     4345   72.07%
    199    73        0.0520    41        0.0553        0.0155     7578   72.07%
    324    87        0.0543    33        0.0553        0.0155    10984   72.07%
    511   100        0.0488    47        0.0553        0.0155    14323   72.07%
    681   116        0.0543    27        0.0553        0.0155    17490   72.07%
    841   111        cutoff              0.0553        0.0155    20190   72.07%
   1009   104        cutoff              0.0553        0.0155    23866   72.07%
   1213   110        0.0522    30        0.0553        0.0155    24784   72.07%
   1907   100        cutoff              0.0553        0.0155    36004   72.07%
Elapsed time = 3.91 sec. (5227.35 ticks, tree = 0.08 MB, solutions = 14)
   2602    88        cutoff              0.0553        0.0155    48090   72.07%

Clique cuts applied:  0
Flow cuts applied:  0
Flow path cuts applied:  0
Disjunctive cuts applied:  0
Cone linearizations applied:  0

Root node processing (before b&c):
  Real time             =    1.26 sec. (2104.27 ticks)
Parallel b&c, 8 threads:
  Real time             =    3.75 sec. (4387.97 ticks)
  Sync time (average)   =    0.44 sec.
  Wait time (average)   =    0.00 sec.
                          ------------
Total (root+branch&cut) =    5.01 sec. (6492.24 ticks)
Gap: 72.07%
Upper bound: 0.0553338
Lower bound: 0.0154573
End of CPLEX run. Time: 5.00953 seconds
